language ESSENCE' 1.0
$ loaded file: carseqdata/csplib-instance-6
letting numcars=100
letting numclasses=23
letting numoptions=5
letting optMax=[1, 2, 1, 2, 1]
letting windowSize=[2, 3, 3, 5, 5]
letting numberPerClass=[14, 11, 2, 1, 1, 3, 5, 4, 1, 5, 3, 2, 2, 7, 9, 14, 3, 2, 6, 2, 1, 1, 1]
letting optionsRequired=[[0, 1, 0, 0, 0], [1, 0, 0, 0, 0], [0, 1, 1, 1, 0], [0, 1, 1, 0, 1], [1, 0, 0, 1, 1], [1, 0, 1, 0, 0], [0, 0, 0, 1, 0], [1, 0, 0, 1, 0], [1, 1, 1, 1, 1], [0, 0, 1, 0, 0], [1, 1, 0, 1, 0], [1, 1, 0, 1, 1], [1, 1, 1, 0, 1], [0, 1, 1, 0, 0], [0, 1, 0, 1, 0], [1, 1, 0, 0, 0], [0, 1, 0, 1, 1], [0, 0, 1, 0, 1], [1, 1, 1, 0, 0], [1, 1, 1, 1, 0], [0, 1, 0, 0, 1], [0, 0, 0, 0, 1], [0, 0, 0, 1, 1]]
